165
1000
501
846
8
155
85
84
273
233
499
546
829
807
434
719
921
803
786
1
559
550
157
89
122
203
102
293
750
212
978
60
592
408
334
40
237
171
93
115
849
211
348
306
578
86
522
605
158
482
54
395
418
69
758
84
725
219
423
384
590
168
164
256
99
109
48
137
53
1
224
150
431
177
405
553
236
300
248
218
756
861
616
869
58
585
13
595
267
132
898
64
763
24
915
149
823
31
848
402
478
57
499
99
139
62
536
197
110
345
167
214
158
407
641
78
476
32
454
359
284
17
506
727
11
156
431
131
58
22
242
193
1
890
70
816
79
518
479
630
288
151
162
76
499
969
332
459
399
577
441
171
866
754
152
752
930
390
124
358
184
79
415
149
733
823
493
